90 4005
1 2 131
1 3 32
1 4 95
1 5 213
1 6 163
1 7 68
1 8 120
1 9 15
1 10 65
1 11 57
1 12 215
1 13 264
1 14 181
1 15 24
1 16 268
1 17 17
1 18 196
1 19 110
1 20 126
1 21 158
1 22 36
1 23 86
1 24 185
1 25 189
1 26 207
1 27 6
1 28 42
1 29 11
1 30 232
1 31 136
1 32 49
1 33 77
1 34 203
1 35 253
1 36 42
1 37 54
1 38 244
1 39 152
1 40 233
1 41 95
1 42 98
1 43 103
1 44 27
1 45 203
1 46 186
1 47 242
1 48 105
1 49 198
1 50 160
1 51 248
1 52 144
1 53 92
1 54 88
1 55 5
1 56 251
1 57 81
1 58 55
1 59 60
1 60 185
1 61 211
1 62 27
1 63 87
1 64 265
1 65 9
1 66 201
1 67 155
1 68 185
1 69 247
1 70 106
1 71 7
1 72 57
1 73 254
1 74 78
1 75 229
1 76 23
1 77 75
1 78 127
1 79 167
1 80 70
1 81 2
1 82 71
1 83 175
1 84 93
1 85 60
1 86 55
1 87 165
1 88 42
1 89 135
1 90 147
2 3 85
2 4 183
2 5 114
2 6 107
2 7 43
2 8 9
2 9 124
2 10 242
2 11 205
2 12 19
2 13 86
2 14 51
2 15 123
2 16 110
2 17 241
2 18 209
2 19 103
2 20 49
2 21 218
2 22 81
2 23 68
2 24 90
2 25 34
2 26 267
2 27 82
2 28 98
2 29 37
2 30 235
2 31 147
2 32 182
2 33 119
2 34 245
2 35 94
2 36 230
2 37 213
2 38 140
2 39 242
2 40 238
2 41 78
2 42 29
2 43 199
2 44 31
2 45 162
2 46 268
2 47 41
2 48 92
2 49 196
2 50 109
2 51 117
2 52 251
2 53 36
2 54 199
2 55 43
2 56 143
2 57 54
2 58 255
2 59 248
2 60 43
2 61 252
2 62 65
2 63 98
2 64 196
2 65 68
2 66 130
2 67 56
2 68 201
2 69 245
2 70 236
2 71 164
2 72 26
2 73 242
2 74 187
2 75 29
2 76 53
2 77 232
2 78 192
2 79 89
2 80 236
2 81 205
2 82 255
2 83 31
2 84 186
2 85 113
2 86 154
2 87 62
2 88 59
2 89 97
2 90 178
3 4 231
3 5 192
3 6 16
3 7 152
3 8 215
3 9 66
3 10 251
3 11 114
3 12 115
3 13 261
3 14 174
3 15 232
3 16 264
3 17 153
3 18 41
3 19 177
3 20 140
3 21 249
3 22 213
3 23 244
3 24 74
3 25 56
3 26 252
3 27 193
3 28 244
3 29 170
3 30 105
3 31 83
3 32 12
3 33 95
3 34 140
3 35 207
3 36 263
3 37 117
3 38 1
3 39 58
3 40 115
3 41 157
3 42 60
3 43 236
3 44 80
3 45 177
3 46 220
3 47 215
3 48 218
3 49 85
3 50 75
3 51 68
3 52 87
3 53 109
3 54 0
3 55 219
3 56 55
3 57 264
3 58 114
3 59 245
3 60 88
3 61 141
3 62 21
3 63 151
3 64 117
3 65 164
3 66 32
3 67 121
3 68 95
3 69 167
3 70 112
3 71 118
3 72 90
3 73 104
3 74 81
3 75 72
3 76 194
3 77 187
3 78 70
3 79 175
3 80 191
3 81 3
3 82 130
3 83 72
3 84 200
3 85 45
3 86 129
3 87 224
3 88 94
3 89 163
3 90 28
4 5 157
4 6 177
4 7 222
4 8 120
4 9 222
4 10 28
4 11 199
4 12 10
4 13 148
4 14 53
4 15 53
4 16 269
4 17 174
4 18 40
4 19 119
4 20 46
4 21 62
4 22 114
4 23 83
4 24 24
4 25 1
4 26 205
4 27 45
4 28 160
4 29 47
4 30 29
4 31 20
4 32 94
4 33 184
4 34 196
4 35 73
4 36 150
4 37 97
4 38 207
4 39 158
4 40 94
4 41 25
4 42 148
4 43 23
4 44 136
4 45 28
4 46 259
4 47 156
4 48 93
4 49 52
4 50 20
4 51 181
4 52 239
4 53 110
4 54 142
4 55 159
4 56 20
4 57 251
4 58 77
4 59 123
4 60 53
4 61 41
4 62 93
4 63 201
4 64 56
4 65 119
4 66 40
4 67 104
4 68 46
4 69 150
4 70 221
4 71 72
4 72 167
4 73 190
4 74 52
4 75 122
4 76 263
4 77 201
4 78 155
4 79 8
4 80 202
4 81 50
4 82 132
4 83 94
4 84 113
4 85 215
4 86 186
4 87 177
4 88 108
4 89 267
4 90 242
5 6 183
5 7 8
5 8 163
5 9 168
5 10 244
5 11 35
5 12 135
5 13 58
5 14 251
5 15 74
5 16 134
5 17 232
5 18 259
5 19 139
5 20 50
5 21 233
5 22 135
5 23 73
5 24 149
5 25 186
5 26 82
5 27 202
5 28 188
5 29 71
5 30 57
5 31 217
5 32 181
5 33 91
5 34 34
5 35 130
5 36 22
5 37 138
5 38 144
5 39 153
5 40 14
5 41 158
5 42 13
5 43 161
5 44 190
5 45 259
5 46 175
5 47 43
5 48 185
5 49 203
5 50 131
5 51 103
5 52 98
5 53 57
5 54 230
5 55 179
5 56 213
5 57 263
5 58 32
5 59 78
5 60 123
5 61 36
5 62 179
5 63 247
5 64 172
5 65 229
5 66 18
5 67 251
5 68 209
5 69 18
5 70 118
5 71 25
5 72 91
5 73 239
5 74 91
5 75 94
5 76 161
5 77 251
5 78 28
5 79 59
5 80 205
5 81 79
5 82 158
5 83 182
5 84 239
5 85 61
5 86 14
5 87 126
5 88 55
5 89 86
5 90 181
6 7 186
6 8 53
6 9 261
6 10 142
6 11 192
6 12 17
6 13 242
6 14 32
6 15 80
6 16 190
6 17 152
6 18 216
6 19 258
6 20 176
6 21 239
6 22 39
6 23 226
6 24 46
6 25 54
6 26 125
6 27 254
6 28 178
6 29 6
6 30 90
6 31 77
6 32 18
6 33 215
6 34 102
6 35 249
6 36 107
6 37 146
6 38 36
6 39 73
6 40 12
6 41 135
6 42 28
6 43 156
6 44 240
6 45 121
6 46 226
6 47 139
6 48 228
6 49 213
6 50 206
6 51 201
6 52 241
6 53 181
6 54 261
6 55 59
6 56 82
6 57 88
6 58 48
6 59 118
6 60 252
6 61 31
6 62 20
6 63 216
6 64 258
6 65 119
6 66 255
6 67 37
6 68 130
6 69 250
6 70 85
6 71 26
6 72 24
6 73 155
6 74 44
6 75 209
6 76 216
6 77 79
6 78 161
6 79 105
6 80 28
6 81 105
6 82 202
6 83 222
6 84 209
6 85 53
6 86 227
6 87 71
6 88 267
6 89 147
6 90 81
7 8 206
7 9 31
7 10 54
7 11 188
7 12 45
7 13 219
7 14 117
7 15 222
7 16 23
7 17 2
7 18 164
7 19 215
7 20 153
7 21 116
7 22 34
7 23 100
7 24 8
7 25 166
7 26 91
7 27 199
7 28 227
7 29 121
7 30 204
7 31 54
7 32 89
7 33 186
7 34 235
7 35 32
7 36 146
7 37 9
7 38 103
7 39 209
7 40 60
7 41 165
7 42 267
7 43 138
7 44 110
7 45 128
7 46 51
7 47 217
7 48 189
7 49 121
7 50 84
7 51 49
7 52 217
7 53 104
7 54 212
7 55 229
7 56 139
7 57 266
7 58 232
7 59 169
7 60 148
7 61 140
7 62 12
7 63 203
7 64 204
7 65 150
7 66 208
7 67 23
7 68 26
7 69 137
7 70 85
7 71 21
7 72 269
7 73 66
7 74 237
7 75 38
7 76 265
7 77 240
7 78 205
7 79 28
7 80 196
7 81 137
7 82 29
7 83 27
7 84 162
7 85 106
7 86 4
7 87 30
7 88 114
7 89 223
7 90 25
8 9 19
8 10 139
8 11 226
8 12 248
8 13 233
8 14 41
8 15 246
8 16 217
8 17 236
8 18 71
8 19 171
8 20 223
8 21 113
8 22 230
8 23 210
8 24 68
8 25 100
8 26 225
8 27 67
8 28 62
8 29 156
8 30 153
8 31 12
8 32 25
8 33 213
8 34 146
8 35 168
8 36 76
8 37 26
8 38 3
8 39 64
8 40 30
8 41 101
8 42 86
8 43 237
8 44 81
8 45 51
8 46 123
8 47 12
8 48 89
8 49 96
8 50 65
8 51 100
8 52 257
8 53 191
8 54 263
8 55 132
8 56 175
8 57 179
8 58 183
8 59 177
8 60 140
8 61 176
8 62 190
8 63 48
8 64 109
8 65 199
8 66 248
8 67 136
8 68 204
8 69 7
8 70 1
8 71 27
8 72 135
8 73 102
8 74 203
8 75 143
8 76 102
8 77 254
8 78 7
8 79 123
8 80 76
8 81 166
8 82 58
8 83 240
8 84 136
8 85 128
8 86 213
8 87 152
8 88 17
8 89 143
8 90 91
9 10 101
9 11 174
9 12 98
9 13 149
9 14 11
9 15 151
9 16 199
9 17 252
9 18 222
9 19 259
9 20 44
9 21 233
9 22 55
9 23 118
9 24 51
9 25 17
9 26 83
9 27 161
9 28 148
9 29 75
9 30 162
9 31 97
9 32 215
9 33 134
9 34 248
9 35 256
9 36 198
9 37 211
9 38 21
9 39 109
9 40 53
9 41 269
9 42 122
9 43 247
9 44 195
9 45 173
9 46 231
9 47 237
9 48 100
9 49 71
9 50 206
9 51 137
9 52 201
9 53 200
9 54 130
9 55 95
9 56 169
9 57 163
9 58 162
9 59 4
9 60 250
9 61 259
9 62 141
9 63 177
9 64 78
9 65 197
9 66 65
9 67 166
9 68 22
9 69 49
9 70 233
9 71 210
9 72 153
9 73 68
9 74 48
9 75 160
9 76 91
9 77 192
9 78 8
9 79 73
9 80 132
9 81 216
9 82 86
9 83 27
9 84 202
9 85 172
9 86 119
9 87 169
9 88 120
9 89 252
9 90 70
10 11 64
10 12 216
10 13 200
10 14 172
10 15 262
10 16 12
10 17 126
10 18 63
10 19 175
10 20 180
10 21 71
10 22 91
10 23 51
10 24 251
10 25 180
10 26 152
10 27 71
10 28 205
10 29 24
10 30 95
10 31 96
10 32 17
10 33 82
10 34 176
10 35 74
10 36 264
10 37 25
10 38 127
10 39 237
10 40 6
10 41 114
10 42 121
10 43 164
10 44 159
10 45 113
10 46 77
10 47 220
10 48 9
10 49 116
10 50 87
10 51 64
10 52 269
10 53 224
10 54 221
10 55 64
10 56 28
10 57 137
10 58 40
10 59 138
10 60 138
10 61 11
10 62 187
10 63 173
10 64 64
10 65 126
10 66 180
10 67 222
10 68 131
10 69 255
10 70 201
10 71 42
10 72 21
10 73 266
10 74 144
10 75 177
10 76 105
10 77 93
10 78 137
10 79 131
10 80 55
10 81 67
10 82 243
10 83 156
10 84 87
10 85 227
10 86 19
10 87 245
10 88 190
10 89 263
10 90 73
11 12 53
11 13 180
11 14 258
11 15 184
11 16 189
11 17 128
11 18 230
11 19 269
11 20 114
11 21 93
11 22 113
11 23 47
11 24 158
11 25 76
11 26 183
11 27 219
11 28 106
11 29 217
11 30 163
11 31 239
11 32 247
11 33 164
11 34 239
11 35 170
11 36 204
11 37 101
11 38 150
11 39 168
11 40 244
11 41 33
11 42 207
11 43 113
11 44 44
11 45 98
11 46 21
11 47 193
11 48 136
11 49 177
11 50 111
11 51 139
11 52 137
11 53 21
11 54 156
11 55 241
11 56 158
11 57 255
11 58 123
11 59 177
11 60 234
11 61 229
11 62 134
11 63 55
11 64 139
11 65 88
11 66 82
11 67 68
11 68 83
11 69 182
11 70 81
11 71 131
11 72 140
11 73 6
11 74 152
11 75 243
11 76 105
11 77 227
11 78 188
11 79 237
11 80 77
11 81 161
11 82 173
11 83 75
11 84 203
11 85 2
11 86 205
11 87 227
11 88 247
11 89 209
11 90 193
12 13 111
12 14 176
12 15 56
12 16 51
12 17 130
12 18 65
12 19 3
12 20 95
12 21 232
12 22 204
12 23 256
12 24 133
12 25 235
12 26 38
12 27 29
12 28 218
12 29 240
12 30 157
12 31 175
12 32 28
12 33 147
12 34 36
12 35 240
12 36 12
12 37 145
12 38 32
12 39 170
12 40 188
12 41 205
12 42 70
12 43 156
12 44 179
12 45 79
12 46 131
12 47 132
12 48 70
12 49 197
12 50 257
12 51 50
12 52 263
12 53 46
12 54 196
12 55 239
12 56 129
12 57 97
12 58 199
12 59 35
12 60 99
12 61 159
12 62 9
12 63 68
12 64 95
12 65 45
12 66 206
12 67 24
12 68 161
12 69 165
12 70 18
12 71 87
12 72 75
12 73 2
12 74 87
12 75 85
12 76 107
12 77 253
12 78 187
12 79 39
12 80 61
12 81 91
12 82 188
12 83 149
12 84 127
12 85 57
12 86 238
12 87 149
12 88 83
12 89 174
12 90 158
13 14 206
13 15 201
13 16 146
13 17 8
13 18 146
13 19 79
13 20 223
13 21 157
13 22 65
13 23 92
13 24 163
13 25 217
13 26 112
13 27 135
13 28 198
13 29 195
13 30 196
13 31 266
13 32 173
13 33 150
13 34 32
13 35 228
13 36 123
13 37 41
13 38 45
13 39 37
13 40 4
13 41 240
13 42 216
13 43 242
13 44 252
13 45 189
13 46 48
13 47 184
13 48 223
13 49 103
13 50 248
13 51 117
13 52 191
13 53 149
13 54 201
13 55 142
13 56 240
13 57 247
13 58 223
13 59 8
13 60 186
13 61 248
13 62 36
13 63 252
13 64 163
13 65 240
13 66 3
13 67 81
13 68 135
13 69 205
13 70 220
13 71 120
13 72 86
13 73 159
13 74 265
13 75 160
13 76 65
13 77 191
13 78 39
13 79 262
13 80 80
13 81 59
13 82 24
13 83 167
13 84 165
13 85 99
13 86 139
13 87 191
13 88 83
13 89 231
13 90 105
14 15 235
14 16 92
14 17 101
14 18 116
14 19 192
14 20 182
14 21 72
14 22 32
14 23 57
14 24 188
14 25 76
14 26 193
14 27 237
14 28 87
14 29 182
14 30 137
14 31 188
14 32 49
14 33 166
14 34 55
14 35 76
14 36 221
14 37 235
14 38 120
14 39 136
14 40 73
14 41 103
14 42 176
14 43 242
14 44 45
14 45 128
14 46 38
14 47 110
14 48 233
14 49 73
14 50 99
14 51 66
14 52 20
14 53 86
14 54 149
14 55 191
14 56 32
14 57 252
14 58 236
14 59 92
14 60 57
14 61 118
14 62 248
14 63 129
14 64 230
14 65 229
14 66 178
14 67 155
14 68 136
14 69 211
14 70 252
14 71 1
14 72 235
14 73 129
14 74 79
14 75 252
14 76 99
14 77 232
14 78 240
14 79 135
14 80 42
14 81 206
14 82 208
14 83 139
14 84 191
14 85 190
14 86 23
14 87 206
14 88 179
14 89 66
14 90 110
15 16 141
15 17 215
15 18 237
15 19 8
15 20 101
15 21 236
15 22 1
15 23 172
15 24 146
15 25 97
15 26 107
15 27 200
15 28 48
15 29 110
15 30 115
15 31 223
15 32 94
15 33 13
15 34 52
15 35 22
15 36 195
15 37 24
15 38 218
15 39 111
15 40 98
15 41 110
15 42 77
15 43 234
15 44 268
15 45 98
15 46 152
15 47 53
15 48 239
15 49 152
15 50 19
15 51 132
15 52 229
15 53 250
15 54 101
15 55 1
15 56 154
15 57 224
15 58 179
15 59 138
15 60 90
15 61 5
15 62 193
15 63 219
15 64 16
15 65 50
15 66 240
15 67 208
15 68 154
15 69 159
15 70 2
15 71 8
15 72 227
15 73 231
15 74 247
15 75 147
15 76 78
15 77 72
15 78 151
15 79 202
15 80 42
15 81 67
15 82 257
15 83 163
15 84 121
15 85 99
15 86 140
15 87 43
15 88 137
15 89 198
15 90 88
16 17 252
16 18 61
16 19 33
16 20 13
16 21 253
16 22 133
16 23 133
16 24 57
16 25 41
16 26 144
16 27 116
16 28 253
16 29 261
16 30 217
16 31 148
16 32 136
16 33 86
16 34 189
16 35 69
16 36 2
16 37 99
16 38 236
16 39 174
16 40 246
16 41 116
16 42 44
16 43 19
16 44 223
16 45 254
16 46 239
16 47 53
16 48 195
16 49 57
16 50 100
16 51 78
16 52 159
16 53 253
16 54 136
16 55 120
16 56 202
16 57 237
16 58 53
16 59 245
16 60 15
16 61 269
16 62 51
16 63 179
16 64 58
16 65 163
16 66 46
16 67 257
16 68 169
16 69 208
16 70 92
16 71 1
16 72 231
16 73 190
16 74 36
16 75 247
16 76 15
16 77 127
16 78 109
16 79 79
16 80 227
16 81 124
16 82 146
16 83 89
16 84 6
16 85 258
16 86 240
16 87 259
16 88 269
16 89 119
16 90 211
17 18 70
17 19 54
17 20 227
17 21 150
17 22 143
17 23 154
17 24 122
17 25 35
17 26 41
17 27 26
17 28 90
17 29 97
17 30 8
17 31 206
17 32 215
17 33 121
17 34 25
17 35 81
17 36 75
17 37 11
17 38 219
17 39 99
17 40 64
17 41 218
17 42 87
17 43 20
17 44 112
17 45 152
17 46 114
17 47 93
17 48 196
17 49 2
17 50 52
17 51 71
17 52 227
17 53 231
17 54 223
17 55 104
17 56 99
17 57 73
17 58 246
17 59 228
17 60 72
17 61 207
17 62 260
17 63 152
17 64 30
17 65 226
17 66 61
17 67 105
17 68 262
17 69 242
17 70 215
17 71 0
17 72 111
17 73 266
17 74 269
17 75 154
17 76 187
17 77 266
17 78 252
17 79 229
17 80 249
17 81 216
17 82 187
17 83 116
17 84 184
17 85 255
17 86 189
17 87 214
17 88 251
17 89 20
17 90 202
18 19 149
18 20 156
18 21 250
18 22 92
18 23 45
18 24 49
18 25 194
18 26 148
18 27 50
18 28 32
18 29 76
18 30 170
18 31 100
18 32 261
18 33 111
18 34 187
18 35 194
18 36 217
18 37 246
18 38 158
18 39 238
18 40 29
18 41 47
18 42 58
18 43 154
18 44 33
18 45 19
18 46 227
18 47 153
18 48 89
18 49 244
18 50 80
18 51 49
18 52 180
18 53 105
18 54 111
18 55 102
18 56 107
18 57 24
18 58 129
18 59 22
18 60 181
18 61 165
18 62 60
18 63 149
18 64 136
18 65 82
18 66 119
18 67 186
18 68 234
18 69 70
18 70 123
18 71 147
18 72 83
18 73 114
18 74 167
18 75 95
18 76 185
18 77 77
18 78 217
18 79 231
18 80 1
18 81 226
18 82 184
18 83 158
18 84 236
18 85 166
18 86 91
18 87 39
18 88 72
18 89 260
18 90 64
19 20 90
19 21 212
19 22 20
19 23 144
19 24 102
19 25 201
19 26 123
19 27 109
19 28 108
19 29 125
19 30 20
19 31 40
19 32 155
19 33 202
19 34 251
19 35 64
19 36 182
19 37 111
19 38 167
19 39 59
19 40 4
19 41 142
19 42 56
19 43 206
19 44 211
19 45 167
19 46 0
19 47 58
19 48 105
19 49 232
19 50 11
19 51 129
19 52 161
19 53 16
19 54 213
19 55 255
19 56 59
19 57 239
19 58 54
19 59 184
19 60 21
19 61 116
19 62 195
19 63 244
19 64 139
19 65 69
19 66 265
19 67 267
19 68 168
19 69 248
19 70 247
19 71 26
19 72 107
19 73 26
19 74 7
19 75 115
19 76 169
19 77 33
19 78 111
19 79 83
19 80 48
19 81 243
19 82 27
19 83 244
19 84 114
19 85 125
19 86 170
19 87 174
19 88 88
19 89 37
19 90 113
20 21 39
20 22 178
20 23 130
20 24 111
20 25 138
20 26 266
20 27 178
20 28 124
20 29 48
20 30 187
20 31 198
20 32 156
20 33 188
20 34 260
20 35 168
20 36 11
20 37 131
20 38 3
20 39 236
20 40 147
20 41 54
20 42 75
20 43 6
20 44 52
20 45 183
20 46 120
20 47 183
20 48 179
20 49 95
20 50 71
20 51 31
20 52 95
20 53 244
20 54 255
20 55 60
20 56 266
20 57 158
20 58 19
20 59 209
20 60 194
20 61 259
20 62 154
20 63 250
20 64 117
20 65 212
20 66 231
20 67 166
20 68 18
20 69 224
20 70 220
20 71 231
20 72 65
20 73 127
20 74 225
20 75 169
20 76 29
20 77 84
20 78 252
20 79 74
20 80 162
20 81 81
20 82 112
20 83 79
20 84 151
20 85 246
20 86 95
20 87 253
20 88 144
20 89 15
20 90 240
21 22 250
21 23 211
21 24 26
21 25 96
21 26 68
21 27 48
21 28 234
21 29 185
21 30 88
21 31 184
21 32 229
21 33 126
21 34 4
21 35 184
21 36 48
21 37 110
21 38 134
21 39 47
21 40 245
21 41 216
21 42 89
21 43 197
21 44 89
21 45 146
21 46 236
21 47 83
21 48 223
21 49 204
21 50 74
21 51 61
21 52 33
21 53 222
21 54 14
21 55 56
21 56 210
21 57 117
21 58 95
21 59 44
21 60 67
21 61 130
21 62 85
21 63 66
21 64 80
21 65 162
21 66 8
21 67 211
21 68 66
21 69 152
21 70 41
21 71 123
21 72 183
21 73 209
21 74 187
21 75 177
21 76 240
21 77 0
21 78 237
21 79 14
21 80 38
21 81 178
21 82 251
21 83 19
21 84 25
21 85 263
21 86 75
21 87 19
21 88 21
21 89 255
21 90 115
22 23 34
22 24 149
22 25 83
22 26 178
22 27 22
22 28 228
22 29 242
22 30 61
22 31 125
22 32 206
22 33 4
22 34 230
22 35 226
22 36 0
22 37 62
22 38 6
22 39 134
22 40 162
22 41 107
22 42 61
22 43 57
22 44 181
22 45 206
22 46 168
22 47 46
22 48 161
22 49 204
22 50 253
22 51 3
22 52 183
22 53 71
22 54 72
22 55 158
22 56 60
22 57 69
22 58 96
22 59 4
22 60 15
22 61 194
22 62 153
22 63 145
22 64 85
22 65 150
22 66 68
22 67 119
22 68 107
22 69 233
22 70 190
22 71 18
22 72 214
22 73 87
22 74 155
22 75 192
22 76 131
22 77 262
22 78 263
22 79 65
22 80 250
22 81 153
22 82 71
22 83 191
22 84 217
22 85 192
22 86 132
22 87 87
22 88 140
22 89 151
22 90 28
23 24 262
23 25 89
23 26 206
23 27 40
23 28 32
23 29 75
23 30 162
23 31 105
23 32 261
23 33 107
23 34 28
23 35 216
23 36 194
23 37 247
23 38 60
23 39 41
23 40 36
23 41 267
23 42 155
23 43 195
23 44 3
23 45 190
23 46 130
23 47 31
23 48 163
23 49 86
23 50 148
23 51 95
23 52 119
23 53 177
23 54 217
23 55 27
23 56 186
23 57 101
23 58 82
23 59 265
23 60 106
23 61 131
23 62 6
23 63 105
23 64 160
23 65 48
23 66 230
23 67 32
23 68 183
23 69 168
23 70 231
23 71 99
23 72 161
23 73 228
23 74 99
23 75 207
23 76 15
23 77 157
23 78 115
23 79 193
23 80 232
23 81 148
23 82 137
23 83 54
23 84 66
23 85 111
23 86 161
23 87 263
23 88 15
23 89 237
23 90 189
24 25 125
24 26 176
24 27 150
24 28 226
24 29 107
24 30 187
24 31 59
24 32 186
24 33 53
24 34 66
24 35 67
24 36 196
24 37 183
24 38 162
24 39 16
24 40 102
24 41 222
24 42 16
24 43 59
24 44 193
24 45 140
24 46 254
24 47 174
24 48 121
24 49 87
24 50 221
24 51 89
24 52 52
24 53 138
24 54 211
24 55 22
24 56 22
24 57 201
24 58 183
24 59 30
24 60 80
24 61 109
24 62 224
24 63 118
24 64 204
24 65 72
24 66 9
24 67 21
24 68 162
24 69 9
24 70 255
24 71 172
24 72 154
24 73 112
24 74 65
24 75 208
24 76 37
24 77 192
24 78 53
24 79 139
24 80 253
24 81 186
24 82 23
24 83 214
24 84 105
24 85 47
24 86 113
24 87 74
24 88 161
24 89 128
24 90 13
25 26 118
25 27 96
25 28 117
25 29 192
25 30 65
25 31 228
25 32 8
25 33 93
25 34 249
25 35 101
25 36 34
25 37 23
25 38 244
25 39 67
25 40 59
25 41 77
25 42 20
25 43 105
25 44 56
25 45 25
25 46 222
25 47 174
25 48 138
25 49 265
25 50 183
25 51 266
25 52 173
25 53 75
25 54 58
25 55 243
25 56 201
25 57 139
25 58 254
25 59 218
25 60 62
25 61 152
25 62 64
25 63 145
25 64 217
25 65 256
25 66 84
25 67 71
25 68 99
25 69 265
25 70 109
25 71 10
25 72 22
25 73 268
25 74 32
25 75 64
25 76 112
25 77 165
25 78 51
25 79 37
25 80 64
25 81 25
25 82 77
25 83 188
25 84 55
25 85 78
25 86 265
25 87 85
25 88 60
25 89 32
25 90 225
26 27 180
26 28 50
26 29 148
26 30 226
26 31 213
26 32 23
26 33 86
26 34 21
26 35 152
26 36 147
26 37 255
26 38 103
26 39 117
26 40 9
26 41 70
26 42 138
26 43 161
26 44 240
26 45 37
26 46 210
26 47 50
26 48 142
26 49 205
26 50 51
26 51 266
26 52 25
26 53 100
26 54 88
26 55 83
26 56 254
26 57 159
26 58 185
26 59 222
26 60 204
26 61 100
26 62 64
26 63 164
26 64 45
26 65 245
26 66 240
26 67 105
26 68 215
26 69 6
26 70 214
26 71 14
26 72 113
26 73 243
26 74 238
26 75 14
26 76 210
26 77 119
26 78 10
26 79 31
26 80 131
26 81 105
26 82 221
26 83 243
26 84 25
26 85 104
26 86 209
26 87 129
26 88 211
26 89 79
26 90 181
27 28 6
27 29 149
27 30 195
27 31 217
27 32 75
27 33 91
27 34 260
27 35 163
27 36 154
27 37 88
27 38 152
27 39 170
27 40 113
27 41 52
27 42 198
27 43 138
27 44 201
27 45 14
27 46 170
27 47 238
27 48 147
27 49 5
27 50 164
27 51 223
27 52 242
27 53 127
27 54 31
27 55 220
27 56 129
27 57 143
27 58 84
27 59 80
27 60 18
27 61 86
27 62 169
27 63 119
27 64 242
27 65 45
27 66 33
27 67 15
27 68 199
27 69 10
27 70 173
27 71 14
27 72 199
27 73 206
27 74 28
27 75 37
27 76 233
27 77 216
27 78 128
27 79 80
27 80 97
27 81 34
27 82 8
27 83 60
27 84 137
27 85 264
27 86 243
27 87 2
27 88 160
27 89 161
27 90 124
28 29 68
28 30 51
28 31 82
28 32 97
28 33 237
28 34 75
28 35 51
28 36 180
28 37 91
28 38 97
28 39 58
28 40 54
28 41 211
28 42 233
28 43 39
28 44 13
28 45 51
28 46 54
28 47 12
28 48 21
28 49 66
28 50 164
28 51 43
28 52 244
28 53 250
28 54 196
28 55 146
28 56 90
28 57 126
28 58 24
28 59 180
28 60 61
28 61 119
28 62 246
28 63 185
28 64 76
28 65 90
28 66 42
28 67 201
28 68 214
28 69 87
28 70 132
28 71 61
28 72 217
28 73 98
28 74 235
28 75 216
28 76 197
28 77 41
28 78 173
28 79 88
28 80 35
28 81 81
28 82 265
28 83 26
28 84 78
28 85 31
28 86 187
28 87 95
28 88 105
28 89 216
28 90 269
29 30 10
29 31 145
29 32 18
29 33 255
29 34 179
29 35 157
29 36 133
29 37 244
29 38 121
29 39 21
29 40 213
29 41 200
29 42 162
29 43 41
29 44 40
29 45 265
29 46 46
29 47 205
29 48 260
29 49 119
29 50 151
29 51 233
29 52 247
29 53 241
29 54 206
29 55 49
29 56 114
29 57 236
29 58 246
29 59 178
29 60 51
29 61 67
29 62 169
29 63 44
29 64 264
29 65 237
29 66 85
29 67 194
29 68 169
29 69 101
29 70 182
29 71 6
29 72 86
29 73 76
29 74 81
29 75 158
29 76 191
29 77 135
29 78 262
29 79 161
29 80 16
29 81 80
29 82 103
29 83 127
29 84 80
29 85 205
29 86 207
29 87 153
29 88 83
29 89 152
29 90 79
30 31 196
30 32 111
30 33 257
30 34 195
30 35 103
30 36 239
30 37 85
30 38 117
30 39 195
30 40 61
30 41 86
30 42 254
30 43 103
30 44 131
30 45 49
30 46 172
30 47 110
30 48 42
30 49 95
30 50 76
30 51 193
30 52 158
30 53 66
30 54 239
30 55 250
30 56 249
30 57 20
30 58 105
30 59 264
30 60 144
30 61 237
30 62 8
30 63 4
30 64 233
30 65 255
30 66 173
30 67 259
30 68 152
30 69 212
30 70 171
30 71 93
30 72 207
30 73 259
30 74 95
30 75 235
30 76 61
30 77 39
30 78 140
30 79 129
30 80 163
30 81 221
30 82 182
30 83 190
30 84 1
30 85 210
30 86 228
30 87 184
30 88 41
30 89 163
30 90 22
31 32 231
31 33 245
31 34 124
31 35 182
31 36 111
31 37 244
31 38 129
31 39 181
31 40 25
31 41 87
31 42 254
31 43 105
31 44 104
31 45 168
31 46 178
31 47 55
31 48 111
31 49 121
31 50 152
31 51 8
31 52 220
31 53 128
31 54 10
31 55 17
31 56 103
31 57 101
31 58 202
31 59 216
31 60 95
31 61 214
31 62 46
31 63 117
31 64 109
31 65 252
31 66 166
31 67 226
31 68 181
31 69 238
31 70 104
31 71 184
31 72 94
31 73 47
31 74 256
31 75 207
31 76 204
31 77 21
31 78 229
31 79 46
31 80 257
31 81 57
31 82 105
31 83 54
31 84 160
31 85 31
31 86 169
31 87 116
31 88 147
31 89 192
31 90 62
32 33 228
32 34 211
32 35 58
32 36 148
32 37 119
32 38 21
32 39 185
32 40 23
32 41 247
32 42 99
32 43 4
32 44 261
32 45 204
32 46 165
32 47 24
32 48 120
32 49 17
32 50 42
32 51 5
32 52 228
32 53 46
32 54 54
32 55 222
32 56 197
32 57 186
32 58 144
32 59 118
32 60 65
32 61 225
32 62 93
32 63 111
32 64 33
32 65 232
32 66 59
32 67 11
32 68 256
32 69 73
32 70 100
32 71 235
32 72 60
32 73 114
32 74 260
32 75 9
32 76 43
32 77 211
32 78 179
32 79 24
32 80 104
32 81 70
32 82 168
32 83 54
32 84 230
32 85 18
32 86 70
32 87 194
32 88 189
32 89 166
32 90 58
33 34 181
33 35 34
33 36 147
33 37 79
33 38 204
33 39 20
33 40 227
33 41 250
33 42 263
33 43 5
33 44 43
33 45 191
33 46 122
33 47 233
33 48 54
33 49 153
33 50 195
33 51 168
33 52 98
33 53 134
33 54 164
33 55 129
33 56 24
33 57 246
33 58 90
33 59 106
33 60 269
33 61 95
33 62 60
33 63 44
33 64 213
33 65 159
33 66 246
33 67 97
33 68 209
33 69 154
33 70 38
33 71 235
33 72 159
33 73 42
33 74 221
33 75 201
33 76 156
33 77 188
33 78 134
33 79 19
33 80 181
33 81 189
33 82 261
33 83 134
33 84 53
33 85 243
33 86 153
33 87 25
33 88 24
33 89 85
33 90 56
34 35 62
34 36 60
34 37 182
34 38 193
34 39 29
34 40 118
34 41 69
34 42 212
34 43 98
34 44 46
34 45 105
34 46 213
34 47 61
34 48 89
34 49 171
34 50 194
34 51 91
34 52 15
34 53 35
34 54 26
34 55 61
34 56 9
34 57 67
34 58 151
34 59 208
34 60 156
34 61 194
34 62 229
34 63 43
34 64 215
34 65 71
34 66 57
34 67 214
34 68 195
34 69 184
34 70 180
34 71 214
34 72 231
34 73 250
34 74 246
34 75 101
34 76 232
34 77 190
34 78 213
34 79 119
34 80 111
34 81 234
34 82 130
34 83 201
34 84 9
34 85 262
34 86 235
34 87 87
34 88 63
34 89 259
34 90 235
35 36 215
35 37 181
35 38 249
35 39 188
35 40 193
35 41 218
35 42 228
35 43 157
35 44 125
35 45 223
35 46 98
35 47 170
35 48 50
35 49 37
35 50 216
35 51 156
35 52 123
35 53 255
35 54 234
35 55 208
35 56 6
35 57 71
35 58 81
35 59 215
35 60 20
35 61 238
35 62 203
35 63 34
35 64 119
35 65 83
35 66 74
35 67 38
35 68 192
35 69 66
35 70 256
35 71 64
35 72 92
35 73 180
35 74 149
35 75 230
35 76 169
35 77 247
35 78 156
35 79 171
35 80 11
35 81 244
35 82 3
35 83 19
35 84 228
35 85 19
35 86 197
35 87 196
35 88 30
35 89 131
35 90 208
36 37 157
36 38 137
36 39 53
36 40 56
36 41 7
36 42 82
36 43 67
36 44 128
36 45 22
36 46 64
36 47 229
36 48 205
36 49 163
36 50 126
36 51 70
36 52 9
36 53 261
36 54 212
36 55 126
36 56 106
36 57 111
36 58 51
36 59 6
36 60 237
36 61 136
36 62 180
36 63 208
36 64 11
36 65 106
36 66 145
36 67 31
36 68 188
36 69 252
36 70 133
36 71 117
36 72 106
36 73 127
36 74 199
36 75 114
36 76 126
36 77 24
36 78 9
36 79 159
36 80 243
36 81 149
36 82 226
36 83 33
36 84 105
36 85 166
36 86 32
36 87 249
36 88 194
36 89 14
36 90 80
37 38 176
37 39 28
37 40 263
37 41 0
37 42 170
37 43 127
37 44 182
37 45 6
37 46 63
37 47 1
37 48 172
37 49 78
37 50 141
37 51 124
37 52 78
37 53 0
37 54 7
37 55 84
37 56 104
37 57 100
37 58 125
37 59 184
37 60 109
37 61 134
37 62 153
37 63 256
37 64 146
37 65 83
37 66 51
37 67 81
37 68 93
37 69 166
37 70 264
37 71 196
37 72 258
37 73 206
37 74 229
37 75 241
37 76 60
37 77 256
37 78 171
37 79 40
37 80 199
37 81 19
37 82 124
37 83 162
37 84 37
37 85 149
37 86 218
37 87 42
37 88 21
37 89 55
37 90 44
38 39 154
38 40 107
38 41 91
38 42 204
38 43 102
38 44 265
38 45 130
38 46 53
38 47 0
38 48 218
38 49 239
38 50 180
38 51 95
38 52 41
38 53 61
38 54 37
38 55 262
38 56 11
38 57 176
38 58 268
38 59 167
38 60 12
38 61 151
38 62 103
38 63 194
38 64 230
38 65 19
38 66 239
38 67 142
38 68 179
38 69 114
38 70 146
38 71 208
38 72 233
38 73 36
38 74 111
38 75 182
38 76 191
38 77 225
38 78 177
38 79 268
38 80 124
38 81 78
38 82 71
38 83 35
38 84 231
38 85 90
38 86 123
38 87 32
38 88 10
38 89 61
38 90 228
39 40 257
39 41 248
39 42 66
39 43 215
39 44 207
39 45 60
39 46 1
39 47 73
39 48 127
39 49 80
39 50 220
39 51 118
39 52 171
39 53 66
39 54 100
39 55 252
39 56 184
39 57 1
39 58 143
39 59 81
39 60 124
39 61 67
39 62 235
39 63 205
39 64 46
39 65 4
39 66 122
39 67 110
39 68 118
39 69 154
39 70 72
39 71 208
39 72 182
39 73 82
39 74 170
39 75 128
39 76 65
39 77 251
39 78 110
39 79 236
39 80 156
39 81 232
39 82 240
39 83 145
39 84 88
39 85 56
39 86 170
39 87 89
39 88 17
39 89 187
39 90 71
40 41 165
40 42 58
40 43 187
40 44 126
40 45 200
40 46 56
40 47 213
40 48 64
40 49 174
40 50 261
40 51 12
40 52 245
40 53 259
40 54 262
40 55 244
40 56 242
40 57 213
40 58 269
40 59 185
40 60 112
40 61 250
40 62 140
40 63 141
40 64 211
40 65 172
40 66 164
40 67 239
40 68 28
40 69 25
40 70 75
40 71 224
40 72 62
40 73 33
40 74 68
40 75 99
40 76 127
40 77 162
40 78 259
40 79 107
40 80 90
40 81 152
40 82 217
40 83 196
40 84 194
40 85 213
40 86 230
40 87 13
40 88 177
40 89 262
40 90 34
41 42 114
41 43 198
41 44 101
41 45 68
41 46 70
41 47 172
41 48 246
41 49 33
41 50 210
41 51 23
41 52 139
41 53 29
41 54 191
41 55 244
41 56 71
41 57 141
41 58 132
41 59 148
41 60 83
41 61 35
41 62 123
41 63 63
41 64 92
41 65 127
41 66 1
41 67 93
41 68 235
41 69 269
41 70 90
41 71 231
41 72 28
41 73 86
41 74 49
41 75 82
41 76 41
41 77 186
41 78 48
41 79 161
41 80 81
41 81 49
41 82 39
41 83 215
41 84 49
41 85 20
41 86 169
41 87 26
41 88 45
41 89 14
41 90 79
42 43 28
42 44 173
42 45 130
42 46 155
42 47 86
42 48 169
42 49 128
42 50 95
42 51 48
42 52 145
42 53 19
42 54 131
42 55 194
42 56 147
42 57 216
42 58 76
42 59 198
42 60 85
42 61 220
42 62 115
42 63 223
42 64 109
42 65 208
42 66 105
42 67 200
42 68 50
42 69 56
42 70 200
42 71 40
42 72 53
42 73 52
42 74 124
42 75 53
42 76 7
42 77 242
42 78 126
42 79 96
42 80 159
42 81 156
42 82 265
42 83 145
42 84 87
42 85 111
42 86 52
42 87 164
42 88 157
42 89 93
42 90 137
43 44 236
43 45 79
43 46 77
43 47 140
43 48 63
43 49 141
43 50 212
43 51 159
43 52 263
43 53 254
43 54 110
43 55 168
43 56 88
43 57 126
43 58 50
43 59 249
43 60 164
43 61 61
43 62 176
43 63 245
43 64 43
43 65 192
43 66 153
43 67 121
43 68 112
43 69 175
43 70 260
43 71 20
43 72 52
43 73 188
43 74 63
43 75 17
43 76 126
43 77 79
43 78 170
43 79 133
43 80 246
43 81 145
43 82 237
43 83 118
43 84 83
43 85 42
43 86 223
43 87 10
43 88 259
43 89 154
43 90 181
44 45 159
44 46 144
44 47 147
44 48 49
44 49 124
44 50 23
44 51 226
44 52 172
44 53 219
44 54 43
44 55 84
44 56 110
44 57 94
44 58 117
44 59 180
44 60 52
44 61 67
44 62 97
44 63 116
44 64 91
44 65 242
44 66 202
44 67 116
44 68 15
44 69 216
44 70 155
44 71 124
44 72 145
44 73 175
44 74 56
44 75 118
44 76 73
44 77 255
44 78 30
44 79 178
44 80 87
44 81 45
44 82 217
44 83 216
44 84 8
44 85 242
44 86 163
44 87 155
44 88 138
44 89 10
44 90 86
45 46 143
45 47 23
45 48 34
45 49 259
45 50 92
45 51 132
45 52 144
45 53 68
45 54 4
45 55 109
45 56 262
45 57 13
45 58 250
45 59 84
45 60 30
45 61 178
45 62 262
45 63 8
45 64 134
45 65 175
45 66 225
45 67 253
45 68 241
45 69 64
45 70 108
45 71 177
45 72 64
45 73 35
45 74 162
45 75 81
45 76 213
45 77 234
45 78 110
45 79 125
45 80 16
45 81 19
45 82 141
45 83 176
45 84 264
45 85 69
45 86 94
45 87 221
45 88 111
45 89 149
45 90 110
46 47 94
46 48 8
46 49 152
46 50 244
46 51 197
46 52 264
46 53 257
46 54 14
46 55 249
46 56 223
46 57 262
46 58 157
46 59 194
46 60 260
46 61 99
46 62 224
46 63 121
46 64 30
46 65 32
46 66 177
46 67 211
46 68 37
46 69 196
46 70 93
46 71 225
46 72 176
46 73 39
46 74 137
46 75 31
46 76 184
46 77 116
46 78 44
46 79 102
46 80 243
46 81 152
46 82 77
46 83 177
46 84 11
46 85 95
46 86 258
46 87 179
46 88 31
46 89 164
46 90 119
47 48 93
47 49 241
47 50 74
47 51 171
47 52 50
47 53 73
47 54 160
47 55 11
47 56 13
47 57 142
47 58 215
47 59 248
47 60 143
47 61 116
47 62 123
47 63 29
47 64 48
47 65 138
47 66 5
47 67 48
47 68 23
47 69 179
47 70 142
47 71 202
47 72 107
47 73 78
47 74 124
47 75 247
47 76 29
47 77 194
47 78 228
47 79 245
47 80 93
47 81 127
47 82 157
47 83 177
47 84 6
47 85 88
47 86 89
47 87 18
47 88 249
47 89 66
47 90 138
48 49 85
48 50 266
48 51 232
48 52 32
48 53 262
48 54 177
48 55 60
48 56 85
48 57 33
48 58 226
48 59 80
48 60 69
48 61 44
48 62 34
48 63 13
48 64 218
48 65 162
48 66 32
48 67 3
48 68 74
48 69 223
48 70 60
48 71 63
48 72 192
48 73 173
48 74 249
48 75 263
48 76 220
48 77 227
48 78 0
48 79 198
48 80 129
48 81 152
48 82 150
48 83 262
48 84 148
48 85 155
48 86 153
48 87 225
48 88 163
48 89 186
48 90 227
49 50 30
49 51 93
49 52 19
49 53 177
49 54 70
49 55 134
49 56 26
49 57 159
49 58 140
49 59 156
49 60 139
49 61 1
49 62 138
49 63 110
49 64 10
49 65 145
49 66 93
49 67 21
49 68 202
49 69 155
49 70 26
49 71 36
49 72 13
49 73 126
49 74 48
49 75 3
49 76 250
49 77 248
49 78 14
49 79 9
49 80 116
49 81 126
49 82 177
49 83 38
49 84 90
49 85 40
49 86 44
49 87 168
49 88 163
49 89 60
49 90 80
50 51 68
50 52 18
50 53 251
50 54 212
50 55 75
50 56 172
50 57 25
50 58 126
50 59 212
50 60 59
50 61 248
50 62 108
50 63 261
50 64 87
50 65 232
50 66 238
50 67 174
50 68 195
50 69 19
50 70 130
50 71 150
50 72 110
50 73 69
50 74 136
50 75 183
50 76 92
50 77 51
50 78 110
50 79 133
50 80 226
50 81 194
50 82 173
50 83 128
50 84 154
50 85 147
50 86 3
50 87 81
50 88 11
50 89 101
50 90 269
51 52 3
51 53 16
51 54 187
51 55 23
51 56 53
51 57 181
51 58 192
51 59 228
51 60 12
51 61 129
51 62 98
51 63 165
51 64 59
51 65 250
51 66 97
51 67 252
51 68 153
51 69 146
51 70 0
51 71 241
51 72 244
51 73 83
51 74 51
51 75 118
51 76 179
51 77 163
51 78 62
51 79 5
51 80 228
51 81 224
51 82 76
51 83 206
51 84 228
51 85 30
51 86 197
51 87 199
51 88 101
51 89 263
51 90 236
52 53 49
52 54 159
52 55 119
52 56 182
52 57 197
52 58 37
52 59 254
52 60 79
52 61 128
52 62 48
52 63 85
52 64 109
52 65 58
52 66 162
52 67 211
52 68 120
52 69 122
52 70 205
52 71 131
52 72 184
52 73 39
52 74 107
52 75 149
52 76 150
52 77 238
52 78 61
52 79 221
52 80 30
52 81 244
52 82 161
52 83 17
52 84 55
52 85 241
52 86 69
52 87 37
52 88 204
52 89 149
52 90 187
53 54 55
53 55 128
53 56 134
53 57 144
53 58 228
53 59 268
53 60 87
53 61 65
53 62 101
53 63 64
53 64 25
53 65 3
53 66 176
53 67 72
53 68 32
53 69 216
53 70 109
53 71 263
53 72 235
53 73 167
53 74 244
53 75 95
53 76 81
53 77 262
53 78 179
53 79 0
53 80 75
53 81 226
53 82 106
53 83 169
53 84 234
53 85 232
53 86 45
53 87 47
53 88 236
53 89 134
53 90 54
54 55 67
54 56 76
54 57 36
54 58 201
54 59 131
54 60 148
54 61 35
54 62 49
54 63 159
54 64 12
54 65 146
54 66 158
54 67 207
54 68 164
54 69 238
54 70 178
54 71 41
54 72 167
54 73 121
54 74 33
54 75 153
54 76 127
54 77 87
54 78 236
54 79 93
54 80 129
54 81 207
54 82 197
54 83 194
54 84 159
54 85 21
54 86 176
54 87 191
54 88 146
54 89 192
54 90 258
55 56 205
55 57 177
55 58 136
55 59 135
55 60 107
55 61 127
55 62 269
55 63 103
55 64 189
55 65 209
55 66 236
55 67 153
55 68 55
55 69 14
55 70 223
55 71 60
55 72 18
55 73 91
55 74 207
55 75 49
55 76 31
55 77 186
55 78 91
55 79 213
55 80 156
55 81 23
55 82 62
55 83 139
55 84 196
55 85 221
55 86 224
55 87 180
55 88 124
55 89 207
55 90 24
56 57 191
56 58 147
56 59 176
56 60 267
56 61 12
56 62 221
56 63 256
56 64 143
56 65 140
56 66 41
56 67 241
56 68 85
56 69 246
56 70 92
56 71 123
56 72 97
56 73 66
56 74 136
56 75 130
56 76 195
56 77 19
56 78 212
56 79 203
56 80 148
56 81 189
56 82 83
56 83 44
56 84 224
56 85 139
56 86 268
56 87 143
56 88 42
56 89 175
56 90 186
57 58 184
57 59 49
57 60 141
57 61 18
57 62 51
57 63 5
57 64 206
57 65 233
57 66 28
57 67 1
57 68 152
57 69 27
57 70 22
57 71 262
57 72 23
57 73 148
57 74 14
57 75 167
57 76 51
57 77 173
57 78 21
57 79 13
57 80 196
57 81 117
57 82 269
57 83 223
57 84 247
57 85 156
57 86 170
57 87 95
57 88 101
57 89 65
57 90 176
58 59 230
58 60 11
58 61 97
58 62 202
58 63 113
58 64 218
58 65 131
58 66 203
58 67 214
58 68 29
58 69 115
58 70 83
58 71 88
58 72 199
58 73 118
58 74 137
58 75 239
58 76 123
58 77 16
58 78 73
58 79 6
58 80 219
58 81 118
58 82 125
58 83 229
58 84 117
58 85 261
58 86 81
58 87 24
58 88 85
58 89 23
58 90 99
59 60 159
59 61 25
59 62 154
59 63 246
59 64 230
59 65 36
59 66 254
59 67 222
59 68 13
59 69 256
59 70 58
59 71 81
59 72 126
59 73 164
59 74 242
59 75 58
59 76 126
59 77 78
59 78 54
59 79 62
59 80 42
59 81 199
59 82 66
59 83 243
59 84 225
59 85 156
59 86 232
59 87 258
59 88 167
59 89 98
59 90 45
60 61 103
60 62 83
60 63 127
60 64 84
60 65 205
60 66 86
60 67 11
60 68 155
60 69 80
60 70 163
60 71 205
60 72 258
60 73 153
60 74 34
60 75 223
60 76 263
60 77 264
60 78 57
60 79 104
60 80 6
60 81 100
60 82 149
60 83 44
60 84 101
60 85 101
60 86 232
60 87 148
60 88 213
60 89 191
60 90 210
61 62 137
61 63 161
61 64 44
61 65 153
61 66 25
61 67 141
61 68 205
61 69 62
61 70 42
61 71 254
61 72 221
61 73 260
61 74 132
61 75 83
61 76 200
61 77 35
61 78 61
61 79 193
61 80 143
61 81 176
61 82 230
61 83 173
61 84 75
61 85 155
61 86 132
61 87 14
61 88 71
61 89 32
61 90 224
62 63 245
62 64 127
62 65 163
62 66 184
62 67 7
62 68 162
62 69 131
62 70 244
62 71 41
62 72 125
62 73 58
62 74 242
62 75 206
62 76 107
62 77 253
62 78 83
62 79 217
62 80 162
62 81 36
62 82 92
62 83 151
62 84 72
62 85 137
62 86 137
62 87 66
62 88 123
62 89 160
62 90 217
63 64 66
63 65 14
63 66 243
63 67 151
63 68 196
63 69 59
63 70 157
63 71 58
63 72 131
63 73 263
63 74 143
63 75 245
63 76 30
63 77 223
63 78 11
63 79 50
63 80 10
63 81 184
63 82 53
63 83 146
63 84 17
63 85 137
63 86 252
63 87 94
63 88 215
63 89 175
63 90 269
64 65 42
64 66 206
64 67 149
64 68 126
64 69 19
64 70 118
64 71 72
64 72 105
64 73 26
64 74 174
64 75 194
64 76 21
64 77 3
64 78 148
64 79 126
64 80 40
64 81 210
64 82 195
64 83 164
64 84 59
64 85 222
64 86 68
64 87 70
64 88 182
64 89 53
64 90 175
65 66 38
65 67 255
65 68 232
65 69 12
65 70 38
65 71 154
65 72 261
65 73 176
65 74 159
65 75 224
65 76 214
65 77 62
65 78 155
65 79 59
65 80 107
65 81 10
65 82 159
65 83 48
65 84 145
65 85 74
65 86 111
65 87 179
65 88 47
65 89 179
65 90 104
66 67 150
66 68 152
66 69 238
66 70 246
66 71 101
66 72 205
66 73 174
66 74 90
66 75 262
66 76 96
66 77 23
66 78 246
66 79 86
66 80 149
66 81 226
66 82 204
66 83 91
66 84 54
66 85 97
66 86 28
66 87 151
66 88 201
66 89 40
66 90 29
67 68 0
67 69 24
67 70 247
67 71 77
67 72 178
67 73 166
67 74 256
67 75 64
67 76 145
67 77 96
67 78 72
67 79 71
67 80 265
67 81 157
67 82 214
67 83 28
67 84 157
67 85 27
67 86 157
67 87 49
67 88 235
67 89 168
67 90 170
68 69 100
68 70 82
68 71 235
68 72 21
68 73 204
68 74 181
68 75 227
68 76 261
68 77 88
68 78 239
68 79 65
68 80 225
68 81 245
68 82 200
68 83 161
68 84 56
68 85 7
68 86 2
68 87 26
68 88 206
68 89 188
68 90 199
69 70 68
69 71 83
69 72 109
69 73 221
69 74 101
69 75 48
69 76 197
69 77 117
69 78 136
69 79 161
69 80 86
69 81 193
69 82 261
69 83 174
69 84 171
69 85 263
69 86 160
69 87 131
69 88 21
69 89 115
69 90 126
70 71 64
70 72 67
70 73 227
70 74 10
70 75 257
70 76 31
70 77 254
70 78 99
70 79 262
70 80 129
70 81 228
70 82 142
70 83 215
70 84 122
70 85 22
70 86 94
70 87 64
70 88 106
70 89 214
70 90 211
71 72 14
71 73 224
71 74 234
71 75 246
71 76 137
71 77 260
71 78 106
71 79 256
71 80 225
71 81 201
71 82 55
71 83 164
71 84 109
71 85 248
71 86 55
71 87 10
71 88 160
71 89 47
71 90 19
72 73 56
72 74 117
72 75 8
72 76 201
72 77 108
72 78 132
72 79 143
72 80 155
72 81 269
72 82 252
72 83 258
72 84 54
72 85 255
72 86 3
72 87 67
72 88 17
72 89 56
72 90 234
73 74 248
73 75 228
73 76 45
73 77 173
73 78 237
73 79 16
73 80 59
73 81 216
73 82 252
73 83 156
73 84 228
73 85 167
73 86 52
73 87 199
73 88 17
73 89 249
73 90 68
74 75 193
74 76 108
74 77 35
74 78 25
74 79 223
74 80 211
74 81 179
74 82 132
74 83 27
74 84 219
74 85 77
74 86 187
74 87 129
74 88 111
74 89 146
74 90 231
75 76 111
75 77 54
75 78 220
75 79 130
75 80 242
75 81 55
75 82 27
75 83 35
75 84 175
75 85 179
75 86 27
75 87 136
75 88 220
75 89 136
75 90 13
76 77 185
76 78 148
76 79 228
76 80 99
76 81 241
76 82 202
76 83 201
76 84 205
76 85 220
76 86 197
76 87 269
76 88 140
76 89 42
76 90 126
77 78 151
77 79 51
77 80 164
77 81 267
77 82 167
77 83 264
77 84 263
77 85 137
77 86 251
77 87 51
77 88 233
77 89 88
77 90 256
78 79 65
78 80 10
78 81 262
78 82 221
78 83 82
78 84 245
78 85 55
78 86 60
78 87 135
78 88 216
78 89 108
78 90 172
79 80 196
79 81 107
79 82 157
79 83 144
79 84 33
79 85 205
79 86 240
79 87 20
79 88 180
79 89 151
79 90 9
80 81 191
80 82 179
80 83 268
80 84 30
80 85 122
80 86 224
80 87 72
80 88 199
80 89 195
80 90 171
81 82 109
81 83 57
81 84 21
81 85 8
81 86 124
81 87 171
81 88 269
81 89 158
81 90 216
82 83 1
82 84 259
82 85 55
82 86 263
82 87 84
82 88 60
82 89 171
82 90 49
83 84 203
83 85 59
83 86 8
83 87 114
83 88 141
83 89 239
83 90 101
84 85 237
84 86 177
84 87 252
84 88 27
84 89 36
84 90 259
85 86 103
85 87 242
85 88 92
85 89 99
85 90 23
86 87 88
86 88 107
86 89 26
86 90 146
87 88 35
87 89 1
87 90 44
88 89 25
88 90 117
89 90 249
